WARNING: for repeatability, setting FPU to use double precision
============================[ Problem Statistics ]=============================
|                                                                             |
|  Number of variables:         75001                                         |
|  Number of clauses:          210297                                         |
|  Parse time:                   0.06 s                                       |
|                                                                             |
c ============================[ Search Statistics ]==============================
c | Conflicts |          ORIGINAL         |          LEARNT          | Progress |
c |           |    Vars  Clauses Literals |    Limit  Clauses Lit/Cl |          |
c ===============================================================================
c Switched to VSIDS.
c Switched to LRB.
c Switched to VSIDS.
c Switched to LRB.
c Switched to VSIDS.
c Switched to LRB.
c Switched to VSIDS.
c Switched to LRB.
c Switched to VSIDS.
c Switched to LRB.
c Switched to VSIDS.
c Switched to LRB.
c Switched to VSIDS.
c Switched to LRB.
c Switched to VSIDS.
c Switched to LRB.
c Switched to VSIDS.
c Switched to LRB.
c Switched to VSIDS.
c Switched to LRB.
c Switched to VSIDS.
c Switched to LRB.
c Switched to VSIDS.
c Switched to LRB.
c Switched to VSIDS.
c Switched to LRB.
c Switched to VSIDS.
c Switched to LRB.
c Switched to VSIDS.
c Switched to LRB.
c Switched to VSIDS.
c Switched to LRB.
CAREFUL: the definition is falsified in conflict 11889819 at DL 256 (has happened 1 times)
c Switched to VSIDS.
c Switched to LRB.
c ===============================================================================
restarts                  : 60323
conflicts                 : 13415161       (3793 /sec)
decisions                 : 104679655      (0.00 % random) (29596 /sec)
propagations              : 7805241378     (2206769 /sec)
conflict literals         : 944456656      (9.82 % deleted)

conflicts w/ DIP found    : 11142940       (83.06 % of conflicts)
conflicts w/ dangerous DIP: 2              (0.00 % of conflicts)
conflicts w/ DIP-learning : 221403         (1.65 % of conflicts)
decisions on ext vars     : 14560092       (13.91 % of decisions)
total ext vars            : 17872       
tried delete ext vars     : 2           
deleted ext vars          : 2           
max ext vars              : 17870       

Memory used               : 755.00 MB
CPU time                  : 3536.95 s
DIP computation time      : 100.793 s (2.85 % of total time)
ER_sel time               : 18.4033 s
ER_add time               : 0.087909 s
ER_delC time              : 0 s
ER_delV time              : 0.001352 s
ER_sub time               : 22.7658 s
ER_stat time              : 0 s

INDETERMINATE
